15 965
525 7 482 7 365 7 115 9 943 13
525 7 482 7 365 7 115 9 943 13
525 7 446 7 267 7 66 9 891 11 731 18
525 7 479 7 355 7 106 9 927 13
535 8 492 8 398 9 279 10 184 14 58 26 897 50
525 7 484 7 368 7 123 9 857 11 635 18
525 7 482 7 394 7 212 9 29 11 822 15 623 21
525 7 505 7 381 7 218 9 50 11 850 15 664 21
520 7 440 7 284 7 88 12
535 8 492 8 398 9 231 10 69 14 899 50
535 8 493 8 407 9 310 10 223 16 94 22
525 7 445 7 264 7 63 9 889 11 721 18
525 7 482 7 358 7 165 12
525 7 446 7 267 7 66 9 891 11 731 18
525 7 445 7 264 7 63 9 889 11 721 18
